p cnf 568 1562
1 2 3 4 0
-1 -2 0
-1 -3 0
-1 -4 0
-2 -3 0
-2 -4 0
-3 -4 0
-2 0
-1 0
-3 48 0
-4 0
5 6 7 8 0
-5 -6 0
-5 -7 0
-5 -8 0
-6 -7 0
-6 -8 0
-7 -8 0
-6 0
-5 10 0
-7 56 0
-8 0
9 10 11 12 0
-9 -10 0
-9 -11 0
-9 -12 0
-10 -11 0
-10 -12 0
-11 -12 0
-10 5 0
-9 14 0
-11 60 0
-12 0
13 14 15 16 0
-13 -14 0
-13 -15 0
-13 -16 0
-14 -15 0
-14 -16 0
-15 -16 0
-14 9 0
-13 18 0
-15 64 0
-16 0
17 18 19 20 0
-17 -18 0
-17 -19 0
-17 -20 0
-18 -19 0
-18 -20 0
-19 -20 0
-18 13 0
-17 22 0
-19 68 0
-20 0
21 22 23 24 0
-21 -22 0
-21 -23 0
-21 -24 0
-22 -23 0
-22 -24 0
-23 -24 0
-22 17 0
-21 26 0
-23 72 0
-24 0
25 26 27 28 0
-25 -26 0
-25 -27 0
-25 -28 0
-26 -27 0
-26 -28 0
-27 -28 0
-26 21 0
-25 30 0
-27 76 0
-28 0
29 30 31 32 0
-29 -30 0
-29 -31 0
-29 -32 0
-30 -31 0
-30 -32 0
-31 -32 0
-30 25 0
-29 34 0
-31 80 0
-32 0
33 34 35 36 0
-33 -34 0
-33 -35 0
-33 -36 0
-34 -35 0
-34 -36 0
-35 -36 0
-34 29 0
-33 38 0
-35 84 0
-36 0
37 38 39 40 0
-37 -38 0
-37 -39 0
-37 -40 0
-38 -39 0
-38 -40 0
-39 -40 0
-38 33 0
-37 42 0
-39 88 0
-40 0
41 42 43 44 0
-41 -42 0
-41 -43 0
-41 -44 0
-42 -43 0
-42 -44 0
-43 -44 0
-42 37 0
-41 0
-43 92 0
-44 0
45 46 47 48 0
-45 -46 0
-45 -47 0
-45 -48 0
-46 -47 0
-46 -48 0
-47 -48 0
-46 0
-45 50 0
-47 96 0
-48 3 0
49 50 51 52 0
-49 -50 0
-49 -51 0
-49 -52 0
-50 -51 0
-50 -52 0
-51 -52 0
-50 45 0
-49 54 0
-51 100 0
-52 0
53 54 55 56 0
-53 -54 0
-53 -55 0
-53 -56 0
-54 -55 0
-54 -56 0
-55 -56 0
-54 49 0
-53 58 0
-55 104 0
-56 7 0
57 58 59 60 0
-57 -58 0
-57 -59 0
-57 -60 0
-58 -59 0
-58 -60 0
-59 -60 0
-58 53 0
-57 62 0
-59 108 0
-60 11 0
61 62 63 64 0
-61 -62 0
-61 -63 0
-61 -64 0
-62 -63 0
-62 -64 0
-63 -64 0
-62 57 0
-61 66 0
-63 112 0
-64 15 0
65 66 67 68 0
-65 -66 0
-65 -67 0
-65 -68 0
-66 -67 0
-66 -68 0
-67 -68 0
-66 61 0
-65 70 0
-67 116 0
-68 19 0
69 70 71 72 0
-69 -70 0
-69 -71 0
-69 -72 0
-70 -71 0
-70 -72 0
-71 -72 0
-70 65 0
-69 74 0
-71 120 0
-72 23 0
73 74 75 76 0
-73 -74 0
-73 -75 0
-73 -76 0
-74 -75 0
-74 -76 0
-75 -76 0
-74 69 0
-73 78 0
-75 124 0
-76 27 0
77 78 79 80 0
-77 -78 0
-77 -79 0
-77 -80 0
-78 -79 0
-78 -80 0
-79 -80 0
-78 73 0
-77 82 0
-79 128 0
-80 31 0
81 82 83 84 0
-81 -82 0
-81 -83 0
-81 -84 0
-82 -83 0
-82 -84 0
-83 -84 0
-82 77 0
-81 86 0
-83 132 0
-84 35 0
85 86 87 88 0
-85 -86 0
-85 -87 0
-85 -88 0
-86 -87 0
-86 -88 0
-87 -88 0
-86 81 0
-85 90 0
-87 136 0
-88 39 0
89 90 91 92 0
-89 -90 0
-89 -91 0
-89 -92 0
-90 -91 0
-90 -92 0
-91 -92 0
-90 85 0
-89 0
-91 140 0
-92 43 0
93 94 95 96 0
-93 -94 0
-93 -95 0
-93 -96 0
-94 -95 0
-94 -96 0
-95 -96 0
-94 0
-93 98 0
-95 144 0
-96 47 0
97 98 99 100 0
-97 -98 0
-97 -99 0
-97 -100 0
-98 -99 0
-98 -100 0
-99 -100 0
-98 93 0
-97 102 0
-99 148 0
-100 51 0
101 102 103 104 0
-101 -102 0
-101 -103 0
-101 -104 0
-102 -103 0
-102 -104 0
-103 -104 0
-102 97 0
-101 106 0
-103 152 0
-104 55 0
105 106 107 108 0
-105 -106 0
-105 -107 0
-105 -108 0
-106 -107 0
-106 -108 0
-107 -108 0
-106 101 0
-105 110 0
-107 156 0
-108 59 0
109 110 111 112 0
-109 -110 0
-109 -111 0
-109 -112 0
-110 -111 0
-110 -112 0
-111 -112 0
-110 105 0
-109 114 0
-111 160 0
-112 63 0
113 114 115 116 0
-113 -114 0
-113 -115 0
-113 -116 0
-114 -115 0
-114 -116 0
-115 -116 0
-114 109 0
-113 118 0
-115 164 0
-116 67 0
117 118 119 120 0
-117 -118 0
-117 -119 0
-117 -120 0
-118 -119 0
-118 -120 0
-119 -120 0
-118 113 0
-117 122 0
-119 168 0
-120 71 0
121 122 123 124 0
-121 -122 0
-121 -123 0
-121 -124 0
-122 -123 0
-122 -124 0
-123 -124 0
-122 117 0
-121 126 0
-123 172 0
-124 75 0
125 126 127 128 0
-125 -126 0
-125 -127 0
-125 -128 0
-126 -127 0
-126 -128 0
-127 -128 0
-126 121 0
-125 130 0
-127 176 0
-128 79 0
129 130 131 132 0
-129 -130 0
-129 -131 0
-129 -132 0
-130 -131 0
-130 -132 0
-131 -132 0
-130 125 0
-129 134 0
-131 180 0
-132 83 0
133 134 135 136 0
-133 -134 0
-133 -135 0
-133 -136 0
-134 -135 0
-134 -136 0
-135 -136 0
-134 129 0
-133 138 0
-135 184 0
-136 87 0
137 138 139 140 0
-137 -138 0
-137 -139 0
-137 -140 0
-138 -139 0
-138 -140 0
-139 -140 0
-138 133 0
-137 0
-139 188 0
-140 91 0
141 142 143 144 0
-141 -142 0
-141 -143 0
-141 -144 0
-142 -143 0
-142 -144 0
-143 -144 0
-142 0
-141 146 0
-143 192 0
-144 95 0
145 146 147 148 0
-145 -146 0
-145 -147 0
-145 -148 0
-146 -147 0
-146 -148 0
-147 -148 0
-146 141 0
-145 150 0
-147 196 0
-148 99 0
149 150 151 152 0
-149 -150 0
-149 -151 0
-149 -152 0
-150 -151 0
-150 -152 0
-151 -152 0
-150 145 0
-149 154 0
-151 200 0
-152 103 0
153 154 155 156 0
-153 -154 0
-153 -155 0
-153 -156 0
-154 -155 0
-154 -156 0
-155 -156 0
-154 149 0
-153 158 0
-155 204 0
-156 107 0
157 158 159 160 0
-157 -158 0
-157 -159 0
-157 -160 0
-158 -159 0
-158 -160 0
-159 -160 0
-158 153 0
-157 162 0
-159 208 0
-160 111 0
161 162 163 164 0
-161 -162 0
-161 -163 0
-161 -164 0
-162 -163 0
-162 -164 0
-163 -164 0
-162 157 0
-161 166 0
-163 212 0
-164 115 0
165 166 167 168 0
-165 -166 0
-165 -167 0
-165 -168 0
-166 -167 0
-166 -168 0
-167 -168 0
-166 161 0
-165 170 0
-167 216 0
-168 119 0
169 170 171 172 0
-169 -170 0
-169 -171 0
-169 -172 0
-170 -171 0
-170 -172 0
-171 -172 0
-170 165 0
-169 174 0
-171 220 0
-172 123 0
173 174 175 176 0
-173 -174 0
-173 -175 0
-173 -176 0
-174 -175 0
-174 -176 0
-175 -176 0
-174 169 0
-173 178 0
-175 224 0
-176 127 0
177 178 179 180 0
-177 -178 0
-177 -179 0
-177 -180 0
-178 -179 0
-178 -180 0
-179 -180 0
-178 173 0
-177 182 0
-179 228 0
-180 131 0
181 182 183 184 0
-181 -182 0
-181 -183 0
-181 -184 0
-182 -183 0
-182 -184 0
-183 -184 0
-182 177 0
-181 186 0
-183 232 0
-184 135 0
185 186 187 188 0
-185 -186 0
-185 -187 0
-185 -188 0
-186 -187 0
-186 -188 0
-187 -188 0
-186 181 0
-185 0
-187 236 0
-188 139 0
189 190 191 192 0
-189 -190 0
-189 -191 0
-189 -192 0
-190 -191 0
-190 -192 0
-191 -192 0
-190 0
-189 194 0
-191 240 0
-192 143 0
193 194 195 196 0
-193 -194 0
-193 -195 0
-193 -196 0
-194 -195 0
-194 -196 0
-195 -196 0
-194 189 0
-193 198 0
-195 244 0
-196 147 0
197 198 199 200 0
-197 -198 0
-197 -199 0
-197 -200 0
-198 -199 0
-198 -200 0
-199 -200 0
-198 193 0
-197 202 0
-199 248 0
-200 151 0
201 202 203 204 0
-201 -202 0
-201 -203 0
-201 -204 0
-202 -203 0
-202 -204 0
-203 -204 0
-202 197 0
-201 206 0
-203 252 0
-204 155 0
205 206 207 208 0
-205 -206 0
-205 -207 0
-205 -208 0
-206 -207 0
-206 -208 0
-207 -208 0
-206 201 0
-205 210 0
-207 256 0
-208 159 0
209 210 211 212 0
-209 -210 0
-209 -211 0
-209 -212 0
-210 -211 0
-210 -212 0
-211 -212 0
-210 205 0
-209 214 0
-211 260 0
-212 163 0
213 214 215 216 0
-213 -214 0
-213 -215 0
-213 -216 0
-214 -215 0
-214 -216 0
-215 -216 0
-214 209 0
-213 218 0
-215 264 0
-216 167 0
217 218 219 220 0
-217 -218 0
-217 -219 0
-217 -220 0
-218 -219 0
-218 -220 0
-219 -220 0
-218 213 0
-217 222 0
-219 268 0
-220 171 0
221 222 223 224 0
-221 -222 0
-221 -223 0
-221 -224 0
-222 -223 0
-222 -224 0
-223 -224 0
-222 217 0
-221 226 0
-223 272 0
-224 175 0
225 226 227 228 0
-225 -226 0
-225 -227 0
-225 -228 0
-226 -227 0
-226 -228 0
-227 -228 0
-226 221 0
-225 230 0
-227 276 0
-228 179 0
229 230 231 232 0
-229 -230 0
-229 -231 0
-229 -232 0
-230 -231 0
-230 -232 0
-231 -232 0
-230 225 0
-229 234 0
-231 280 0
-232 183 0
233 234 235 236 0
-233 -234 0
-233 -235 0
-233 -236 0
-234 -235 0
-234 -236 0
-235 -236 0
-234 229 0
-233 0
-235 284 0
-236 187 0
237 238 239 240 0
-237 -238 0
-237 -239 0
-237 -240 0
-238 -239 0
-238 -240 0
-239 -240 0
-238 0
-237 242 0
-239 288 0
-240 191 0
241 242 243 244 0
-241 -242 0
-241 -243 0
-241 -244 0
-242 -243 0
-242 -244 0
-243 -244 0
-242 237 0
-241 246 0
-243 292 0
-244 195 0
245 246 247 248 0
-245 -246 0
-245 -247 0
-245 -248 0
-246 -247 0
-246 -248 0
-247 -248 0
-246 241 0
-245 250 0
-247 296 0
-248 199 0
249 250 251 252 0
-249 -250 0
-249 -251 0
-249 -252 0
-250 -251 0
-250 -252 0
-251 -252 0
-250 245 0
-249 254 0
-251 300 0
-252 203 0
253 254 255 256 0
-253 -254 0
-253 -255 0
-253 -256 0
-254 -255 0
-254 -256 0
-255 -256 0
-254 249 0
-253 258 0
-255 304 0
-256 207 0
257 258 259 260 0
-257 -258 0
-257 -259 0
-257 -260 0
-258 -259 0
-258 -260 0
-259 -260 0
-258 253 0
-257 262 0
-259 308 0
-260 211 0
261 262 263 264 0
-261 -262 0
-261 -263 0
-261 -264 0
-262 -263 0
-262 -264 0
-263 -264 0
-262 257 0
-261 266 0
-263 312 0
-264 215 0
265 266 267 268 0
-265 -266 0
-265 -267 0
-265 -268 0
-266 -267 0
-266 -268 0
-267 -268 0
-266 261 0
-265 270 0
-267 316 0
-268 219 0
269 270 271 272 0
-269 -270 0
-269 -271 0
-269 -272 0
-270 -271 0
-270 -272 0
-271 -272 0
-270 265 0
-269 274 0
-271 320 0
-272 223 0
273 274 275 276 0
-273 -274 0
-273 -275 0
-273 -276 0
-274 -275 0
-274 -276 0
-275 -276 0
-274 269 0
-273 278 0
-275 324 0
-276 227 0
277 278 279 280 0
-277 -278 0
-277 -279 0
-277 -280 0
-278 -279 0
-278 -280 0
-279 -280 0
-278 273 0
-277 282 0
-279 328 0
-280 231 0
281 282 283 284 0
-281 -282 0
-281 -283 0
-281 -284 0
-282 -283 0
-282 -284 0
-283 -284 0
-282 277 0
-281 0
-283 332 0
-284 235 0
285 286 287 288 0
-285 -286 0
-285 -287 0
-285 -288 0
-286 -287 0
-286 -288 0
-287 -288 0
-286 0
-285 290 0
-287 336 0
-288 239 0
289 290 291 292 0
-289 -290 0
-289 -291 0
-289 -292 0
-290 -291 0
-290 -292 0
-291 -292 0
-290 285 0
-289 294 0
-291 340 0
-292 243 0
293 294 295 296 0
-293 -294 0
-293 -295 0
-293 -296 0
-294 -295 0
-294 -296 0
-295 -296 0
-294 289 0
-293 298 0
-295 344 0
-296 247 0
297 298 299 300 0
-297 -298 0
-297 -299 0
-297 -300 0
-298 -299 0
-298 -300 0
-299 -300 0
-298 293 0
-297 302 0
-299 348 0
-300 251 0
301 302 303 304 0
-301 -302 0
-301 -303 0
-301 -304 0
-302 -303 0
-302 -304 0
-303 -304 0
-302 297 0
-301 306 0
-303 352 0
-304 255 0
305 306 307 308 0
-305 -306 0
-305 -307 0
-305 -308 0
-306 -307 0
-306 -308 0
-307 -308 0
-306 301 0
-305 310 0
-307 356 0
-308 259 0
309 310 311 312 0
-309 -310 0
-309 -311 0
-309 -312 0
-310 -311 0
-310 -312 0
-311 -312 0
-310 305 0
-309 314 0
-311 360 0
-312 263 0
313 314 315 316 0
-313 -314 0
-313 -315 0
-313 -316 0
-314 -315 0
-314 -316 0
-315 -316 0
-314 309 0
-313 318 0
-315 364 0
-316 267 0
317 318 319 320 0
-317 -318 0
-317 -319 0
-317 -320 0
-318 -319 0
-318 -320 0
-319 -320 0
-318 313 0
-317 322 0
-319 368 0
-320 271 0
321 322 323 324 0
-321 -322 0
-321 -323 0
-321 -324 0
-322 -323 0
-322 -324 0
-323 -324 0
-322 317 0
-321 326 0
-323 372 0
-324 275 0
325 326 327 328 0
-325 -326 0
-325 -327 0
-325 -328 0
-326 -327 0
-326 -328 0
-327 -328 0
-326 321 0
-325 330 0
-327 376 0
-328 279 0
329 330 331 332 0
-329 -330 0
-329 -331 0
-329 -332 0
-330 -331 0
-330 -332 0
-331 -332 0
-330 325 0
-329 0
-331 380 0
-332 283 0
333 334 335 336 0
-333 -334 0
-333 -335 0
-333 -336 0
-334 -335 0
-334 -336 0
-335 -336 0
-334 0
-333 338 0
-335 384 0
-336 287 0
337 338 339 340 0
-337 -338 0
-337 -339 0
-337 -340 0
-338 -339 0
-338 -340 0
-339 -340 0
-338 333 0
-337 342 0
-339 388 0
-340 291 0
341 342 343 344 0
-341 -342 0
-341 -343 0
-341 -344 0
-342 -343 0
-342 -344 0
-343 -344 0
-342 337 0
-341 346 0
-343 392 0
-344 295 0
345 346 347 348 0
-345 -346 0
-345 -347 0
-345 -348 0
-346 -347 0
-346 -348 0
-347 -348 0
-346 341 0
-345 350 0
-347 396 0
-348 299 0
349 350 351 352 0
-349 -350 0
-349 -351 0
-349 -352 0
-350 -351 0
-350 -352 0
-351 -352 0
-350 345 0
-349 354 0
-351 400 0
-352 303 0
353 354 355 356 0
-353 -354 0
-353 -355 0
-353 -356 0
-354 -355 0
-354 -356 0
-355 -356 0
-354 349 0
-353 358 0
-355 404 0
-356 307 0
357 358 359 360 0
-357 -358 0
-357 -359 0
-357 -360 0
-358 -359 0
-358 -360 0
-359 -360 0
-358 353 0
-357 362 0
-359 408 0
-360 311 0
361 362 363 364 0
-361 -362 0
-361 -363 0
-361 -364 0
-362 -363 0
-362 -364 0
-363 -364 0
-362 357 0
-361 366 0
-363 412 0
-364 315 0
365 366 367 368 0
-365 -366 0
-365 -367 0
-365 -368 0
-366 -367 0
-366 -368 0
-367 -368 0
-366 361 0
-365 370 0
-367 0
-368 319 0
369 370 371 372 0
-369 -370 0
-369 -371 0
-369 -372 0
-370 -371 0
-370 -372 0
-371 -372 0
-370 365 0
-369 374 0
-371 416 0
-372 323 0
373 374 375 376 0
-373 -374 0
-373 -375 0
-373 -376 0
-374 -375 0
-374 -376 0
-375 -376 0
-374 369 0
-373 378 0
-375 420 0
-376 327 0
377 378 379 380 0
-377 -378 0
-377 -379 0
-377 -380 0
-378 -379 0
-378 -380 0
-379 -380 0
-378 373 0
-377 0
-379 424 0
-380 331 0
381 382 383 384 0
-381 -382 0
-381 -383 0
-381 -384 0
-382 -383 0
-382 -384 0
-383 -384 0
-382 0
-381 386 0
-383 428 0
-384 335 0
385 386 387 388 0
-385 -386 0
-385 -387 0
-385 -388 0
-386 -387 0
-386 -388 0
-387 -388 0
-386 381 0
-385 390 0
-387 432 0
-388 339 0
389 390 391 392 0
-389 -390 0
-389 -391 0
-389 -392 0
-390 -391 0
-390 -392 0
-391 -392 0
-390 385 0
-389 394 0
-391 436 0
-392 343 0
393 394 395 396 0
-393 -394 0
-393 -395 0
-393 -396 0
-394 -395 0
-394 -396 0
-395 -396 0
-394 389 0
-393 398 0
-395 440 0
-396 347 0
397 398 399 400 0
-397 -398 0
-397 -399 0
-397 -400 0
-398 -399 0
-398 -400 0
-399 -400 0
-398 393 0
-397 402 0
-399 444 0
-400 351 0
401 402 403 404 0
-401 -402 0
-401 -403 0
-401 -404 0
-402 -403 0
-402 -404 0
-403 -404 0
-402 397 0
-401 406 0
-403 448 0
-404 355 0
405 406 407 408 0
-405 -406 0
-405 -407 0
-405 -408 0
-406 -407 0
-406 -408 0
-407 -408 0
-406 401 0
-405 410 0
-407 452 0
-408 359 0
409 410 411 412 0
-409 -410 0
-409 -411 0
-409 -412 0
-410 -411 0
-410 -412 0
-411 -412 0
-410 405 0
-409 0
-411 456 0
-412 363 0
413 414 415 416 0
-413 -414 0
-413 -415 0
-413 -416 0
-414 -415 0
-414 -416 0
-415 -416 0
-414 0
-413 418 0
-415 464 0
-416 371 0
417 418 419 420 0
-417 -418 0
-417 -419 0
-417 -420 0
-418 -419 0
-418 -420 0
-419 -420 0
-418 413 0
-417 422 0
-419 468 0
-420 375 0
421 422 423 424 0
-421 -422 0
-421 -423 0
-421 -424 0
-422 -423 0
-422 -424 0
-423 -424 0
-422 417 0
-421 0
-423 472 0
-424 379 0
425 426 427 428 0
-425 -426 0
-425 -427 0
-425 -428 0
-426 -427 0
-426 -428 0
-427 -428 0
-426 0
-425 430 0
-427 476 0
-428 383 0
429 430 431 432 0
-429 -430 0
-429 -431 0
-429 -432 0
-430 -431 0
-430 -432 0
-431 -432 0
-430 425 0
-429 434 0
-431 480 0
-432 387 0
433 434 435 436 0
-433 -434 0
-433 -435 0
-433 -436 0
-434 -435 0
-434 -436 0
-435 -436 0
-434 429 0
-433 438 0
-435 484 0
-436 391 0
437 438 439 440 0
-437 -438 0
-437 -439 0
-437 -440 0
-438 -439 0
-438 -440 0
-439 -440 0
-438 433 0
-437 442 0
-439 488 0
-440 395 0
441 442 443 444 0
-441 -442 0
-441 -443 0
-441 -444 0
-442 -443 0
-442 -444 0
-443 -444 0
-442 437 0
-441 446 0
-443 492 0
-444 399 0
445 446 447 448 0
-445 -446 0
-445 -447 0
-445 -448 0
-446 -447 0
-446 -448 0
-447 -448 0
-446 441 0
-445 450 0
-447 496 0
-448 403 0
449 450 451 452 0
-449 -450 0
-449 -451 0
-449 -452 0
-450 -451 0
-450 -452 0
-451 -452 0
-450 445 0
-449 454 0
-451 500 0
-452 407 0
453 454 455 456 0
-453 -454 0
-453 -455 0
-453 -456 0
-454 -455 0
-454 -456 0
-455 -456 0
-454 449 0
-453 458 0
-455 504 0
-456 411 0
457 458 459 460 0
-457 -458 0
-457 -459 0
-457 -460 0
-458 -459 0
-458 -460 0
-459 -460 0
-458 453 0
-457 462 0
-459 508 0
-460 0
461 462 463 464 0
-461 -462 0
-461 -463 0
-461 -464 0
-462 -463 0
-462 -464 0
-463 -464 0
-462 457 0
-461 466 0
-463 512 0
-464 415 0
465 466 467 468 0
-465 -466 0
-465 -467 0
-465 -468 0
-466 -467 0
-466 -468 0
-467 -468 0
-466 461 0
-465 470 0
-467 516 0
-468 419 0
469 470 471 472 0
-469 -470 0
-469 -471 0
-469 -472 0
-470 -471 0
-470 -472 0
-471 -472 0
-470 465 0
-469 0
-471 520 0
-472 423 0
473 474 475 476 0
-473 -474 0
-473 -475 0
-473 -476 0
-474 -475 0
-474 -476 0
-475 -476 0
-474 0
-473 478 0
-475 524 0
-476 427 0
477 478 479 480 0
-477 -478 0
-477 -479 0
-477 -480 0
-478 -479 0
-478 -480 0
-479 -480 0
-478 473 0
-477 482 0
-479 528 0
-480 431 0
481 482 483 484 0
-481 -482 0
-481 -483 0
-481 -484 0
-482 -483 0
-482 -484 0
-483 -484 0
-482 477 0
-481 486 0
-483 532 0
-484 435 0
485 486 487 488 0
-485 -486 0
-485 -487 0
-485 -488 0
-486 -487 0
-486 -488 0
-487 -488 0
-486 481 0
-485 490 0
-487 536 0
-488 439 0
489 490 491 492 0
-489 -490 0
-489 -491 0
-489 -492 0
-490 -491 0
-490 -492 0
-491 -492 0
-490 485 0
-489 494 0
-491 540 0
-492 443 0
493 494 495 496 0
-493 -494 0
-493 -495 0
-493 -496 0
-494 -495 0
-494 -496 0
-495 -496 0
-494 489 0
-493 498 0
-495 544 0
-496 447 0
497 498 499 500 0
-497 -498 0
-497 -499 0
-497 -500 0
-498 -499 0
-498 -500 0
-499 -500 0
-498 493 0
-497 502 0
-499 548 0
-500 451 0
501 502 503 504 0
-501 -502 0
-501 -503 0
-501 -504 0
-502 -503 0
-502 -504 0
-503 -504 0
-502 497 0
-501 506 0
-503 552 0
-504 455 0
505 506 507 508 0
-505 -506 0
-505 -507 0
-505 -508 0
-506 -507 0
-506 -508 0
-507 -508 0
-506 501 0
-505 510 0
-507 556 0
-508 459 0
509 510 511 512 0
-509 -510 0
-509 -511 0
-509 -512 0
-510 -511 0
-510 -512 0
-511 -512 0
-510 505 0
-509 514 0
-511 560 0
-512 463 0
513 514 515 516 0
-513 -514 0
-513 -515 0
-513 -516 0
-514 -515 0
-514 -516 0
-515 -516 0
-514 509 0
-513 518 0
-515 564 0
-516 467 0
517 518 519 520 0
-517 -518 0
-517 -519 0
-517 -520 0
-518 -519 0
-518 -520 0
-519 -520 0
-518 513 0
-517 0
-519 568 0
-520 471 0
521 522 523 524 0
-521 -522 0
-521 -523 0
-521 -524 0
-522 -523 0
-522 -524 0
-523 -524 0
-522 0
-521 526 0
-523 0
-524 475 0
525 526 527 528 0
-525 -526 0
-525 -527 0
-525 -528 0
-526 -527 0
-526 -528 0
-527 -528 0
-526 521 0
-525 530 0
-527 0
-528 479 0
529 530 531 532 0
-529 -530 0
-529 -531 0
-529 -532 0
-530 -531 0
-530 -532 0
-531 -532 0
-530 525 0
-529 534 0
-531 0
-532 483 0
533 534 535 536 0
-533 -534 0
-533 -535 0
-533 -536 0
-534 -535 0
-534 -536 0
-535 -536 0
-534 529 0
-533 538 0
-535 0
-536 487 0
537 538 539 540 0
-537 -538 0
-537 -539 0
-537 -540 0
-538 -539 0
-538 -540 0
-539 -540 0
-538 533 0
-537 542 0
-539 0
-540 491 0
541 542 543 544 0
-541 -542 0
-541 -543 0
-541 -544 0
-542 -543 0
-542 -544 0
-543 -544 0
-542 537 0
-541 546 0
-543 0
-544 495 0
545 546 547 548 0
-545 -546 0
-545 -547 0
-545 -548 0
-546 -547 0
-546 -548 0
-547 -548 0
-546 541 0
-545 550 0
-547 0
-548 499 0
549 550 551 552 0
-549 -550 0
-549 -551 0
-549 -552 0
-550 -551 0
-550 -552 0
-551 -552 0
-550 545 0
-549 554 0
-551 0
-552 503 0
553 554 555 556 0
-553 -554 0
-553 -555 0
-553 -556 0
-554 -555 0
-554 -556 0
-555 -556 0
-554 549 0
-553 558 0
-555 0
-556 507 0
557 558 559 560 0
-557 -558 0
-557 -559 0
-557 -560 0
-558 -559 0
-558 -560 0
-559 -560 0
-558 553 0
-557 562 0
-559 0
-560 511 0
561 562 563 564 0
-561 -562 0
-561 -563 0
-561 -564 0
-562 -563 0
-562 -564 0
-563 -564 0
-562 557 0
-561 566 0
-563 0
-564 515 0
565 566 567 568 0
-565 -566 0
-565 -567 0
-565 -568 0
-566 -567 0
-566 -568 0
-567 -568 0
-566 561 0
-565 0
-567 0
-568 519 0